g3 0 1 0	# problem d6n6R0R6d005d05
 6 5 1 0 0	# vars, constraints, objectives, ranges, eqns
 4 1	# nonlinear constraints, objectives
 0 0	# network constraints: nonlinear, linear
 6 6 6	# nonlinear vars in constraints, objectives, both
 0 0 0 1	# linear network variables; functions; arith, flags
 0 0 0 0 0	# discrete variables: binary, integer, nonlinear (b,c,o)
 30 6	# nonzeros in Jacobian, gradients
 0 0	# max name lengths: constraints, variables
 0 0 0 0 0	# common exprs: b,c,o,c1,o1
b
0 0.74 2.39
0 0.24 2.6
0 0.34 2.53
0 0.61 2.07
0 0.3 2.16
0 0.48 2.58
r
2 58.669
2 121.353
2 223.523
2 652.293
2 38.598
C0
o54
3
o2
o2
n5.46
v1
v3
o2
o2
n2.66
v2
v4
o2
o2
n4.5
v2
v5
C1
o54
7
o2
o2
n2.26
v1
v3
o2
o2
n9.45
v2
v4
o2
o2
n3.41
v2
v5
o2
o2
o2
n6.22
v0
v3
v3
o2
o2
o2
n8.44
v0
v4
v5
o2
o2
o2
n4.53
v2
v4
v4
o2
o2
o2
n3.45
v3
v3
v5
C2
o54
14
o2
o2
n3.28
v1
v3
o2
o2
n7.05
v2
v4
o2
o2
n6.74
v2
v5
o2
o2
o2
n1.8
v0
v3
v3
o2
o2
o2
n6.27
v0
v4
v5
o2
o2
o2
n9.11
v2
v4
v4
o16
o2
o2
o2
n6.57
v3
v3
v5
o2
o2
o2
o2
n8.99
v0
v0
v2
v3
o2
o2
o2
o2
n7.17
v0
v0
v2
v4
o2
o2
o2
o2
n1.37
v0
v0
v4
v4
o2
o2
o2
o2
n4.16
v0
v1
v3
v5
o2
o2
o2
o2
n3.97
v0
v5
v5
v5
o2
o2
o2
o2
n4.48
v1
v2
v3
v4
o2
o2
o2
o2
n3.78
v1
v2
v5
v5
C3
o54
29
o2
o2
n0.97
v1
v3
o16
o2
o2
n9.44
v2
v4
o2
o2
n2.74
v2
v5
o2
o2
o2
n8.84
v0
v3
v3
o2
o2
o2
n5.6
v0
v4
v5
o2
o2
o2
n1.37
v2
v4
v4
o16
o2
o2
o2
n2.3
v3
v3
v5
o2
o2
o2
o2
n6
v0
v0
v2
v3
o16
o2
o2
o2
o2
n2.02
v0
v0
v2
v4
o2
o2
o2
o2
n0.93
v0
v0
v4
v4
o2
o2
o2
o2
n9.6
v0
v1
v3
v5
o2
o2
o2
o2
n9.41
v0
v5
v5
v5
o2
o2
o2
o2
n0.55
v1
v2
v3
v4
o2
o2
o2
o2
n7.09
v1
v2
v5
v5
o2
o2
o2
o2
o2
n9.59
v0
v0
v0
v1
v1
o2
o2
o2
o2
o2
n1.17
v0
v0
v0
v5
v5
o16
o2
o2
o2
o2
o2
n5.45
v0
v0
v2
v4
v4
o2
o2
o2
o2
o2
n6.65
v0
v0
v2
v4
v5
o2
o2
o2
o2
o2
n9.96
v0
v1
v1
v4
v4
o2
o2
o2
o2
o2
n0.1
v0
v1
v3
v3
v3
o2
o2
o2
o2
o2
n3.99
v0
v1
v3
v4
v5
o2
o2
o2
o2
o2
n6.09
v0
v2
v2
v5
v5
o2
o2
o2
o2
o2
n8.29
v0
v2
v4
v4
v5
o2
o2
o2
o2
o2
n6.78
v0
v3
v3
v4
v5
o16
o2
o2
o2
o2
o2
n1.82
v1
v3
v3
v3
v5
o2
o2
o2
o2
o2
n9.79
v2
v2
v2
v2
v5
o2
o2
o2
o2
o2
n5.58
v3
v3
v3
v3
v3
o2
o2
o2
o2
o2
n4.85
v4
v4
v4
v5
v5
o2
o2
o2
o2
o2
n4.58
v4
v5
v5
v5
v5
C4
n0
O0 0
o54
46
o2
o2
n4.03
v1
v3
o2
o2
n1.79
v2
v4
o2
o2
n8.04
v2
v5
o2
o2
o2
n3.3
v0
v3
v3
o2
o2
o2
n4.72
v0
v4
v5
o2
o2
o2
n1.7
v2
v4
v4
o2
o2
o2
n5.48
v3
v3
v5
o2
o2
o2
o2
n1.1
v0
v0
v2
v3
o2
o2
o2
o2
n0.33
v0
v0
v2
v4
o2
o2
o2
o2
n9.49
v0
v0
v4
v4
o2
o2
o2
o2
n1.95
v0
v1
v3
v5
o2
o2
o2
o2
n7.83
v0
v5
v5
v5
o2
o2
o2
o2
n9.88
v1
v2
v3
v4
o2
o2
o2
o2
n9.99
v1
v2
v5
v5
o2
o2
o2
o2
o2
n2.53
v0
v0
v0
v1
v1
o2
o2
o2
o2
o2
n3.91
v0
v0
v0
v5
v5
o2
o2
o2
o2
o2
n0.04
v0
v0
v2
v4
v4
o2
o2
o2
o2
o2
n9.23
v0
v0
v2
v4
v5
o2
o2
o2
o2
o2
n5.57
v0
v1
v1
v4
v4
o2
o2
o2
o2
o2
n1.76
v0
v1
v3
v3
v3
o2
o2
o2
o2
o2
n7.97
v0
v1
v3
v4
v5
o2
o2
o2
o2
o2
n0.09
v0
v2
v2
v5
v5
o2
o2
o2
o2
o2
n3.67
v0
v2
v4
v4
v5
o2
o2
o2
o2
o2
n4.59
v0
v3
v3
v4
v5
o2
o2
o2
o2
o2
n0.41
v1
v3
v3
v3
v5
o2
o2
o2
o2
o2
n4.22
v2
v2
v2
v2
v5
o2
o2
o2
o2
o2
n0.91
v3
v3
v3
v3
v3
o2
o2
o2
o2
o2
n1.41
v4
v4
v4
v5
v5
o2
o2
o2
o2
o2
n9.03
v4
v5
v5
v5
v5
o2
o2
o2
o2
o2
o2
n0.24
v0
v0
v0
v0
v2
v4
o2
o2
o2
o2
o2
o2
n6.35
v0
v0
v0
v0
v3
v4
o2
o2
o2
o2
o2
o2
n8.39
v0
v0
v0
v2
v2
v3
o2
o2
o2
o2
o2
o2
n2.04
v0
v0
v1
v1
v1
v4
o2
o2
o2
o2
o2
o2
n8.09
v0
v0
v1
v1
v3
v3
o2
o2
o2
o2
o2
o2
n3.7
v0
v0
v1
v2
v4
v5
o2
o2
o2
o2
o2
o2
n6.33
v0
v0
v2
v3
v3
v3
o2
o2
o2
o2
o2
o2
n2.06
v0
v1
v1
v1
v1
v3
o2
o2
o2
o2
o2
o2
n9.74
v0
v1
v2
v2
v2
v5
o2
o2
o2
o2
o2
o2
n7.35
v0
v1
v5
v5
v5
v5
o2
o2
o2
o2
o2
o2
n4.46
v0
v2
v2
v3
v5
v5
o2
o2
o2
o2
o2
o2
n0.17
v0
v3
v4
v4
v5
v5
o2
o2
o2
o2
o2
o2
n6.11
v1
v1
v1
v1
v2
v5
o2
o2
o2
o2
o2
o2
n4.58
v1
v1
v2
v4
v4
v4
o16
o2
o2
o2
o2
o2
o2
n0.51
v1
v1
v4
v4
v5
v5
o2
o2
o2
o2
o2
o2
n6.34
v1
v2
v2
v2
v2
v4
o2
o2
o2
o2
o2
o2
n0.18
v1
v2
v2
v3
v4
v5
k5
5
10
15
20
25
J0 6
0 -2.64
1 6.66
2 5.52
3 6.59
4 7.55
5 1.53
J1 6
0 9.1
1 4.07
2 1.4
3 1.67
4 9.05
5 -2.72
J2 6
0 5.11
1 6.93
2 0.27
3 -2.83
4 4.08
5 -4.81
J3 6
0 0.69
1 2.03
2 8.86
3 8.28
4 7.62
5 3.77
J4 6
0 4.02
1 7
2 5.93
3 6.47
4 -0.41
5 3.72
G0 6
0 4.26
1 3.81
2 0.25
3 6.73
4 3.12
5 3.46
